COMUNI = {
	foligno,
	orvieto,
	terni,
	citta_di_castello,
	gubbio,
	todi,
	amelia,
	assisi,
	castiglione_del_lago,
	perugia,
	narni,
	san_giustino,
	corciano,
	marsciano,
	gualdo_tardino,
	umbertide,
	bastia_umbra,
	magione,
	spoleto,
};

NUMERO_COMUNI = 19;

ABITANTI_PER_COMUNE = [55, 19, 106, 38, 30, 15, 11, 27, 15, 161, 17, 11, 21, 18, 14, 16, 21, 14, 36];

STRADE_TRA_COMUNI = [|
	false, false, false, false, false, false, false, true, false, false, false, false, false, false, false, false, false, false, false |
	false, false, false, false, false, true, false, false, false, false, false, false, false, false, false, false, false, false, false |
	false, false, false, false, false, false, false, false, false, false, true, false, false, false, false, false, false, false, true |
	false, false, false, false, false, false, false, false, false, false, false, true, false, false, false, true, false, false, false |
	false, false, false, false, false, false, false, false, false, false, false, false, false, false, true, true, false, false, false |
	false, true, false, false, false, false, true, false, false, false, false, false, false, true, false, false, false, false, false |
	false, false, false, false, false, true, false, false, false, false, true, false, false, false, false, false, false, false, false |
	true, false, false, false, false, false, false, false, false, false, false, false, false, false, false, false, true, false, false |
	false, false, false, false, false, false, false, false, false, false, false, false, false, false, false, false, false, true, false |
	false, false, false, false, false, false, false, false, false, false, false, false, true, true, false, true, true, false, false |
	false, false, true, false, false, false, true, false, false, false, false, false, false, false, false, false, false, false, false |
	false, false, false, true, false, false, false, false, false, false, false, false, false, false, false, false, false, false, false |
	false, false, false, false, false, false, false, false, false, true, false, false, false, false, false, false, false, true, false |
	false, false, false, false, false, true, false, false, false, true, false, false, false, false, false, false, false, false, false |
	false, false, false, false, true, false, false, false, false, false, false, false, false, false, false, false, false, false, false |
	false, false, false, true, true, false, false, false, false, true, false, false, false, false, false, false, false, false, false |
	false, false, false, false, false, false, false, true, false, true, false, false, false, false, false, false, false, false, false |
	false, false, false, false, false, false, false, false, true, false, false, false, true, false, false, false, false, false, false |
	false, false, true, false, false, false, false, false, false, false, false, false, false, false, false, false, false, false, false |
|];

RICHIESTE = [|
	15, 6, 17, 4, 8 |
	1, 4, 0, 6, 1 |
	6, 1, 38, 36, 7 |
	10, 21, 6, 5, 2 |
	10, 1, 24, 2, 1 |
	6, 10, 4, 13, 1 |
	3, 0, 0, 7, 4 |
	4, 19, 8, 2, 9 |
	1, 17, 9, 8, 7 |
	17, 21, 12, 4, 15 |
	0, 3, 24, 2, 25 |
	2, 25, 10, 17, 8 |
	5, 2, 7, 36, 5 |
	2, 5, 2, 21, 5 |
	1, 2, 52, 5, 4 |
	4, 5, 5, 14, 24 |
	3, 11, 21, 0, 37 |
	6, 5, 8, 24, 31 |
	2, 5, 11, 12, 22 |
|];
